c
c start with comments
c
p cnf 34 23
4 -22 4 0
-13 -24 0
29 24 5 0
34 28 19 26 0
2 -7 -11 -35 22 0
2 25 -29 -23 -17 0
16 -12 0
-11 20 22 -17 -25 0
31 9 0
-5 -27 -20 0
-5 33 8 6 19 0
21 24 -9 0
-36 23 0
8 33 27 17 0
3 -10 0
13 13 0
2 28 -9 10 -34 0
-23 -38 -11 0
15 22 8 0
7 14 22 -29 0
-17 27 15 0
-9 26 6 0
37 -4 0